c Reduced graph for miles750_0 generated by Cyril Grelier
p edge 124 2060
e 1 2
e 1 3
e 1 4
e 1 5
e 1 6
e 1 7
e 1 8
e 1 9
e 1 10
e 1 11
e 1 12
e 1 13
e 1 14
e 1 15
e 1 16
e 1 17
e 1 18
e 1 19
e 1 20
e 1 21
e 1 22
e 1 23
e 1 24
e 1 25
e 1 26
e 1 27
e 1 28
e 1 29
e 1 30
e 1 31
e 1 32
e 1 33
e 1 34
e 1 35
e 1 36
e 1 37
e 1 38
e 1 39
e 1 40
e 1 41
e 1 42
e 1 43
e 1 44
e 1 45
e 1 46
e 1 47
e 1 48
e 1 49
e 1 50
e 1 51
e 1 52
e 1 53
e 1 55
e 1 56
e 1 57
e 1 58
e 1 59
e 1 61
e 1 62
e 1 63
e 1 66
e 1 69
e 1 70
e 1 73
e 2 3
e 2 4
e 2 5
e 2 6
e 2 7
e 2 8
e 2 9
e 2 10
e 2 11
e 2 12
e 2 13
e 2 14
e 2 15
e 2 16
e 2 17
e 2 18
e 2 19
e 2 20
e 2 21
e 2 22
e 2 23
e 2 24
e 2 25
e 2 26
e 2 27
e 2 28
e 2 29
e 2 30
e 2 31
e 2 32
e 2 33
e 2 34
e 2 35
e 2 36
e 2 37
e 2 39
e 2 44
e 2 48
e 2 49
e 2 50
e 2 52
e 2 53
e 2 54
e 2 55
e 2 56
e 2 57
e 2 59
e 2 60
e 2 62
e 2 63
e 2 65
e 2 66
e 2 67
e 2 69
e 2 70
e 2 73
e 2 75
e 2 77
e 2 78
e 2 82
e 2 87
e 2 88
e 3 4
e 3 5
e 3 6
e 3 7
e 3 8
e 3 9
e 3 10
e 3 11
e 3 12
e 3 13
e 3 14
e 3 15
e 3 16
e 3 17
e 3 18
e 3 19
e 3 20
e 3 21
e 3 22
e 3 23
e 3 24
e 3 25
e 3 26
e 3 27
e 3 29
e 3 30
e 3 31
e 3 32
e 3 33
e 3 34
e 3 35
e 3 36
e 3 37
e 3 38
e 3 39
e 3 41
e 3 43
e 3 44
e 3 45
e 3 48
e 3 49
e 3 50
e 3 52
e 3 53
e 3 54
e 3 55
e 3 56
e 3 57
e 3 59
e 3 60
e 3 62
e 3 63
e 3 65
e 3 66
e 3 67
e 3 69
e 3 70
e 3 73
e 3 77
e 3 78
e 4 5
e 4 6
e 4 7
e 4 8
e 4 9
e 4 10
e 4 11
e 4 12
e 4 13
e 4 14
e 4 15
e 4 16
e 4 17
e 4 18
e 4 19
e 4 20
e 4 21
e 4 22
e 4 23
e 4 24
e 4 25
e 4 26
e 4 27
e 4 28
e 4 29
e 4 30
e 4 31
e 4 32
e 4 33
e 4 34
e 4 35
e 4 36
e 4 37
e 4 38
e 4 39
e 4 40
e 4 41
e 4 42
e 4 43
e 4 44
e 4 45
e 4 46
e 4 47
e 4 48
e 4 50
e 4 51
e 4 52
e 4 53
e 4 57
e 4 58
e 4 59
e 4 61
e 4 63
e 4 64
e 4 66
e 4 68
e 4 69
e 4 73
e 5 6
e 5 7
e 5 8
e 5 9
e 5 10
e 5 11
e 5 12
e 5 13
e 5 14
e 5 15
e 5 16
e 5 17
e 5 18
e 5 19
e 5 20
e 5 21
e 5 22
e 5 23
e 5 24
e 5 25
e 5 26
e 5 27
e 5 28
e 5 29
e 5 30
e 5 31
e 5 32
e 5 33
e 5 34
e 5 36
e 5 37
e 5 38
e 5 39
e 5 41
e 5 42
e 5 43
e 5 44
e 5 45
e 5 46
e 5 47
e 5 48
e 5 49
e 5 51
e 5 52
e 5 53
e 5 57
e 5 58
e 5 59
e 5 61
e 5 62
e 5 64
e 5 66
e 5 68
e 5 69
e 5 71
e 6 7
e 6 8
e 6 9
e 6 10
e 6 11
e 6 12
e 6 13
e 6 14
e 6 15
e 6 16
e 6 17
e 6 18
e 6 19
e 6 20
e 6 21
e 6 22
e 6 23
e 6 24
e 6 25
e 6 26
e 6 27
e 6 28
e 6 29
e 6 30
e 6 31
e 6 32
e 6 33
e 6 34
e 6 36
e 6 37
e 6 38
e 6 39
e 6 40
e 6 41
e 6 42
e 6 43
e 6 44
e 6 45
e 6 46
e 6 47
e 6 48
e 6 51
e 6 52
e 6 53
e 6 57
e 6 58
e 6 59
e 6 61
e 6 64
e 6 66
e 6 68
e 6 69
e 6 71
e 7 8
e 7 9
e 7 10
e 7 11
e 7 12
e 7 13
e 7 14
e 7 15
e 7 16
e 7 17
e 7 18
e 7 19
e 7 20
e 7 21
e 7 22
e 7 23
e 7 24
e 7 25
e 7 26
e 7 27
e 7 29
e 7 30
e 7 31
e 7 32
e 7 33
e 7 34
e 7 35
e 7 36
e 7 37
e 7 38
e 7 39
e 7 41
e 7 43
e 7 45
e 7 46
e 7 47
e 7 48
e 7 49
e 7 50
e 7 51
e 7 52
e 7 53
e 7 57
e 7 58
e 7 59
e 7 60
e 7 62
e 7 66
e 7 67
e 7 69
e 7 72
e 8 9
e 8 10
e 8 11
e 8 12
e 8 13
e 8 14
e 8 15
e 8 16
e 8 17
e 8 18
e 8 19
e 8 20
e 8 21
e 8 22
e 8 23
e 8 24
e 8 25
e 8 26
e 8 27
e 8 29
e 8 30
e 8 31
e 8 32
e 8 33
e 8 34
e 8 35
e 8 36
e 8 37
e 8 38
e 8 39
e 8 41
e 8 43
e 8 45
e 8 46
e 8 47
e 8 48
e 8 49
e 8 50
e 8 51
e 8 52
e 8 53
e 8 57
e 8 59
e 8 60
e 8 62
e 8 66
e 8 67
e 8 69
e 8 72
e 9 10
e 9 11
e 9 12
e 9 13
e 9 14
e 9 15
e 9 16
e 9 17
e 9 18
e 9 19
e 9 20
e 9 21
e 9 22
e 9 23
e 9 24
e 9 25
e 9 26
e 9 27
e 9 28
e 9 29
e 9 30
e 9 31
e 9 32
e 9 36
e 9 37
e 9 38
e 9 39
e 9 40
e 9 41
e 9 42
e 9 43
e 9 44
e 9 45
e 9 46
e 9 47
e 9 48
e 9 51
e 9 52
e 9 58
e 9 59
e 9 61
e 9 64
e 9 68
e 9 69
e 9 71
e 9 73
e 9 75
e 10 11
e 10 12
e 10 13
e 10 14
e 10 15
e 10 16
e 10 17
e 10 18
e 10 19
e 10 20
e 10 21
e 10 22
e 10 23
e 10 24
e 10 25
e 10 26
e 10 27
e 10 28
e 10 29
e 10 30
e 10 31
e 10 36
e 10 37
e 10 38
e 10 39
e 10 40
e 10 41
e 10 42
e 10 43
e 10 44
e 10 45
e 10 46
e 10 47
e 10 48
e 10 51
e 10 52
e 10 53
e 10 58
e 10 59
e 10 61
e 10 64
e 10 66
e 10 68
e 10 69
e 10 71
e 11 12
e 11 14
e 11 15
e 11 16
e 11 17
e 11 18
e 11 19
e 11 20
e 11 21
e 11 22
e 11 23
e 11 24
e 11 25
e 11 26
e 11 32
e 11 33
e 11 34
e 11 35
e 11 36
e 11 37
e 11 48
e 11 49
e 11 50
e 11 52
e 11 53
e 11 54
e 11 55
e 11 56
e 11 57
e 11 59
e 11 60
e 11 62
e 11 63
e 11 65
e 11 66
e 11 67
e 11 69
e 11 70
e 11 72
e 11 76
e 11 77
e 11 78
e 11 79
e 11 81
e 12 13
e 12 14
e 12 15
e 12 16
e 12 17
e 12 19
e 12 20
e 12 21
e 12 22
e 12 23
e 12 24
e 12 25
e 12 26
e 12 30
e 12 31
e 12 32
e 12 33
e 12 34
e 12 35
e 12 36
e 12 37
e 12 48
e 12 49
e 12 50
e 12 52
e 12 53
e 12 54
e 12 55
e 12 56
e 12 57
e 12 59
e 12 60
e 12 62
e 12 63
e 12 65
e 12 66
e 12 67
e 12 69
e 12 70
e 12 72
e 12 77
e 12 78
e 12 79
e 13 14
e 13 15
e 13 16
e 13 17
e 13 18
e 13 19
e 13 20
e 13 22
e 13 23
e 13 24
e 13 25
e 13 27
e 13 28
e 13 29
e 13 30
e 13 31
e 13 32
e 13 38
e 13 39
e 13 40
e 13 41
e 13 42
e 13 43
e 13 44
e 13 45
e 13 46
e 13 47
e 13 50
e 13 51
e 13 52
e 13 58
e 13 61
e 13 63
e 13 64
e 13 68
e 13 71
e 13 73
e 13 75
e 13 82
e 13 87
e 13 88
e 13 94
e 14 15
e 14 16
e 14 17
e 14 18
e 14 19
e 14 20
e 14 21
e 14 22
e 14 23
e 14 24
e 14 25
e 14 26
e 14 27
e 14 28
e 14 29
e 14 30
e 14 31
e 14 36
e 14 37
e 14 38
e 14 39
e 14 40
e 14 41
e 14 42
e 14 43
e 14 44
e 14 45
e 14 46
e 14 47
e 14 48
e 14 51
e 14 52
e 14 58
e 14 59
e 14 61
e 14 64
e 14 68
e 14 69
e 14 71
e 14 73
e 15 16
e 15 17
e 15 18
e 15 19
e 15 20
e 15 22
e 15 23
e 15 24
e 15 25
e 15 27
e 15 28
e 15 29
e 15 30
e 15 31
e 15 32
e 15 38
e 15 39
e 15 40
e 15 41
e 15 42
e 15 43
e 15 44
e 15 45
e 15 46
e 15 47
e 15 50
e 15 51
e 15 58
e 15 61
e 15 63
e 15 64
e 15 68
e 15 71
e 15 73
e 15 75
e 15 82
e 15 87
e 15 88
e 15 94
e 16 17
e 16 18
e 16 19
e 16 20
e 16 21
e 16 22
e 16 23
e 16 24
e 16 25
e 16 26
e 16 27
e 16 28
e 16 29
e 16 30
e 16 31
e 16 32
e 16 36
e 16 38
e 16 39
e 16 40
e 16 41
e 16 42
e 16 43
e 16 44
e 16 45
e 16 46
e 16 47
e 16 50
e 16 51
e 16 52
e 16 61
e 16 63
e 16 73
e 16 75
e 16 82
e 16 87
e 16 88
e 16 94
e 17 18
e 17 19
e 17 20
e 17 22
e 17 23
e 17 24
e 17 25
e 17 26
e 17 27
e 17 28
e 17 29
e 17 30
e 17 31
e 17 36
e 17 37
e 17 38
e 17 39
e 17 40
e 17 41
e 17 42
e 17 43
e 17 44
e 17 45
e 17 46
e 17 47
e 17 48
e 17 51
e 17 52
e 17 58
e 17 59
e 17 61
e 17 64
e 17 66
e 17 68
e 17 69
e 17 71
e 18 19
e 18 20
e 18 22
e 18 23
e 18 25
e 18 27
e 18 28
e 18 29
e 18 30
e 18 31
e 18 32
e 18 38
e 18 39
e 18 40
e 18 41
e 18 42
e 18 43
e 18 44
e 18 45
e 18 46
e 18 47
e 18 50
e 18 51
e 18 58
e 18 61
e 18 63
e 18 64
e 18 71
e 18 73
e 18 75
e 18 82
e 18 87
e 18 88
e 18 94
e 18 104
e 18 116
e 19 20
e 19 22
e 19 23
e 19 24
e 19 25
e 19 26
e 19 27
e 19 28
e 19 29
e 19 30
e 19 31
e 19 36
e 19 38
e 19 39
e 19 40
e 19 41
e 19 42
e 19 43
e 19 44
e 19 45
e 19 46
e 19 47
e 19 48
e 19 51
e 19 52
e 19 58
e 19 61
e 19 64
e 19 68
e 19 69
e 19 71
e 19 73
e 19 75
e 20 21
e 20 22
e 20 23
e 20 24
e 20 25
e 20 26
e 20 27
e 20 29
e 20 30
e 20 31
e 20 33
e 20 36
e 20 37
e 20 38
e 20 39
e 20 41
e 20 42
e 20 43
e 20 45
e 20 46
e 20 47
e 20 48
e 20 51
e 20 52
e 20 53
e 20 57
e 20 58
e 20 59
e 20 66
e 20 68
e 20 69
e 21 24
e 21 26
e 21 32
e 21 33
e 21 34
e 21 35
e 21 36
e 21 37
e 21 48
e 21 49
e 21 50
e 21 52
e 21 53
e 21 54
e 21 55
e 21 56
e 21 57
e 21 59
e 21 60
e 21 62
e 21 63
e 21 65
e 21 66
e 21 67
e 21 70
e 21 72
e 21 74
e 21 76
e 21 77
e 21 78
e 21 79
e 21 80
e 21 81
e 21 84
e 21 85
e 22 23
e 22 24
e 22 25
e 22 26
e 22 27
e 22 28
e 22 29
e 22 30
e 22 31
e 22 36
e 22 38
e 22 39
e 22 40
e 22 41
e 22 42
e 22 43
e 22 44
e 22 45
e 22 46
e 22 47
e 22 48
e 22 51
e 22 52
e 22 58
e 22 61
e 22 64
e 22 68
e 22 69
e 22 71
e 23 24
e 23 25
e 23 26
e 23 27
e 23 28
e 23 29
e 23 30
e 23 31
e 23 38
e 23 39
e 23 40
e 23 41
e 23 42
e 23 43
e 23 44
e 23 45
e 23 46
e 23 47
e 23 51
e 23 52
e 23 58
e 23 61
e 23 64
e 23 68
e 23 71
e 23 73
e 23 75
e 23 82
e 24 25
e 24 26
e 24 29
e 24 30
e 24 31
e 24 32
e 24 33
e 24 34
e 24 35
e 24 36
e 24 37
e 24 41
e 24 48
e 24 49
e 24 50
e 24 52
e 24 53
e 24 55
e 24 57
e 24 59
e 24 60
e 24 62
e 24 66
e 24 67
e 24 69
e 24 72
e 24 83
e 25 26
e 25 27
e 25 28
e 25 29
e 25 30
e 25 31
e 25 36
e 25 38
e 25 39
e 25 41
e 25 42
e 25 43
e 25 45
e 25 46
e 25 47
e 25 48
e 25 51
e 25 52
e 25 58
e 25 61
e 25 64
e 25 68
e 25 69
e 25 71
e 26 30
e 26 31
e 26 32
e 26 33
e 26 34
e 26 35
e 26 36
e 26 37
e 26 48
e 26 49
e 26 50
e 26 52
e 26 53
e 26 54
e 26 55
e 26 56
e 26 57
e 26 59
e 26 60
e 26 62
e 26 66
e 26 67
e 26 69
e 26 72
e 26 83
e 27 28
e 27 29
e 27 30
e 27 31
e 27 38
e 27 39
e 27 40
e 27 41
e 27 42
e 27 43
e 27 44
e 27 45
e 27 46
e 27 47
e 27 51
e 27 58
e 27 61
e 27 64
e 27 68
e 27 71
e 27 73
e 27 75
e 27 82
e 27 88
e 27 94
e 28 29
e 28 30
e 28 31
e 28 38
e 28 39
e 28 40
e 28 41
e 28 42
e 28 43
e 28 44
e 28 45
e 28 46
e 28 47
e 28 50
e 28 51
e 28 58
e 28 61
e 28 63
e 28 64
e 28 68
e 28 71
e 28 73
e 28 75
e 28 82
e 28 87
e 28 88
e 28 94
e 28 104
e 29 30
e 29 31
e 29 38
e 29 39
e 29 40
e 29 41
e 29 42
e 29 43
e 29 44
e 29 45
e 29 46
e 29 47
e 29 51
e 29 58
e 29 61
e 29 64
e 29 68
e 29 71
e 29 73
e 29 75
e 29 82
e 30 31
e 30 38
e 30 39
e 30 40
e 30 41
e 30 42
e 30 43
e 30 44
e 30 45
e 30 46
e 30 47
e 30 51
e 30 52
e 30 58
e 30 61
e 30 64
e 30 68
e 30 71
e 31 38
e 31 39
e 31 40
e 31 41
e 31 42
e 31 43
e 31 45
e 31 46
e 31 47
e 31 51
e 31 52
e 31 58
e 31 61
e 31 64
e 31 68
e 31 69
e 31 71
e 32 33
e 32 34
e 32 35
e 32 36
e 32 37
e 32 40
e 32 44
e 32 50
e 32 54
e 32 56
e 32 63
e 32 65
e 32 70
e 32 73
e 32 75
e 32 76
e 32 77
e 32 78
e 32 79
e 32 81
e 32 82
e 32 85
e 32 87
e 32 88
e 32 94
e 32 104
e 32 107
e 33 34
e 33 35
e 33 36
e 33 37
e 33 48
e 33 49
e 33 53
e 33 54
e 33 55
e 33 56
e 33 57
e 33 59
e 33 60
e 33 62
e 33 65
e 33 66
e 33 67
e 33 70
e 33 72
e 33 74
e 33 76
e 33 77
e 33 78
e 33 79
e 33 80
e 33 81
e 33 83
e 33 84
e 33 85
e 33 86
e 34 35
e 34 36
e 34 37
e 34 48
e 34 49
e 34 50
e 34 53
e 34 54
e 34 55
e 34 56
e 34 57
e 34 59
e 34 60
e 34 62
e 34 63
e 34 65
e 34 67
e 34 70
e 34 72
e 34 74
e 34 76
e 34 77
e 34 78
e 34 79
e 34 80
e 34 81
e 34 85
e 34 91
e 34 102
e 35 36
e 35 37
e 35 48
e 35 49
e 35 53
e 35 54
e 35 55
e 35 56
e 35 57
e 35 59
e 35 60
e 35 62
e 35 65
e 35 66
e 35 67
e 35 70
e 35 72
e 35 74
e 35 76
e 35 77
e 35 78
e 35 79
e 35 80
e 35 81
e 35 83
e 35 84
e 35 85
e 35 86
e 35 91
e 36 37
e 36 48
e 36 49
e 36 52
e 36 53
e 36 54
e 36 55
e 36 57
e 36 59
e 36 60
e 36 62
e 36 66
e 36 67
e 36 69
e 36 72
e 36 83
e 36 108
e 37 48
e 37 49
e 37 52
e 37 53
e 37 54
e 37 55
e 37 56
e 37 57
e 37 59
e 37 60
e 37 62
e 37 65
e 37 66
e 37 67
e 37 69
e 37 72
e 37 74
e 37 83
e 37 84
e 37 108
e 38 39
e 38 40
e 38 41
e 38 42
e 38 43
e 38 44
e 38 45
e 38 46
e 38 47
e 38 51
e 38 58
e 38 61
e 38 64
e 38 68
e 38 71
e 38 73
e 38 75
e 39 40
e 39 41
e 39 42
e 39 43
e 39 44
e 39 45
e 39 46
e 39 47
e 39 51
e 39 58
e 39 61
e 39 64
e 39 68
e 39 71
e 39 75
e 40 41
e 40 42
e 40 43
e 40 44
e 40 45
e 40 46
e 40 47
e 40 50
e 40 58
e 40 61
e 40 63
e 40 64
e 40 73
e 40 75
e 40 82
e 40 87
e 40 88
e 40 94
e 40 104
e 40 116
e 41 42
e 41 43
e 41 45
e 41 46
e 41 47
e 41 51
e 41 52
e 41 58
e 41 61
e 41 64
e 41 68
e 41 71
e 42 43
e 42 44
e 42 45
e 42 46
e 42 47
e 42 51
e 42 58
e 42 61
e 42 64
e 42 68
e 42 71
e 42 73
e 42 75
e 42 82
e 43 44
e 43 45
e 43 46
e 43 47
e 43 51
e 43 58
e 43 61
e 43 64
e 43 68
e 43 71
e 44 45
e 44 47
e 44 50
e 44 63
e 44 70
e 44 73
e 44 75
e 44 82
e 44 87
e 44 88
e 44 94
e 44 104
e 44 116
e 45 46
e 45 47
e 45 51
e 45 58
e 45 61
e 45 64
e 45 68
e 45 71
e 46 47
e 46 51
e 46 52
e 46 58
e 46 61
e 46 64
e 46 68
e 46 71
e 47 51
e 47 58
e 47 61
e 47 64
e 47 68
e 47 71
e 48 49
e 48 52
e 48 53
e 48 57
e 48 59
e 48 60
e 48 62
e 48 66
e 48 67
e 48 69
e 48 72
e 48 83
e 48 108
e 49 53
e 49 54
e 49 55
e 49 56
e 49 57
e 49 59
e 49 60
e 49 62
e 49 65
e 49 66
e 49 67
e 49 72
e 49 74
e 49 76
e 49 79
e 49 80
e 49 83
e 49 84
e 49 86
e 49 103
e 49 108
e 49 117
e 50 56
e 50 63
e 50 65
e 50 70
e 50 73
e 50 75
e 50 76
e 50 77
e 50 78
e 50 79
e 50 81
e 50 82
e 50 85
e 50 87
e 50 88
e 50 94
e 50 104
e 50 107
e 50 116
e 51 52
e 51 58
e 51 61
e 51 64
e 51 68
e 51 71
e 52 53
e 52 57
e 52 59
e 52 62
e 52 66
e 52 69
e 53 54
e 53 55
e 53 56
e 53 57
e 53 59
e 53 60
e 53 62
e 53 66
e 53 67
e 53 69
e 53 72
e 53 74
e 53 83
e 53 108
e 53 117
e 54 55
e 54 56
e 54 57
e 54 60
e 54 62
e 54 65
e 54 67
e 54 70
e 54 72
e 54 74
e 54 76
e 54 77
e 54 78
e 54 79
e 54 80
e 54 81
e 54 84
e 54 85
e 54 86
e 54 91
e 54 95
e 54 96
e 54 102
e 54 107
e 55 56
e 55 57
e 55 60
e 55 62
e 55 65
e 55 67
e 55 72
e 55 74
e 55 76
e 55 77
e 55 78
e 55 79
e 55 80
e 55 81
e 55 83
e 55 84
e 55 85
e 55 86
e 55 91
e 55 95
e 55 96
e 55 102
e 56 57
e 56 60
e 56 63
e 56 65
e 56 67
e 56 70
e 56 72
e 56 74
e 56 76
e 56 77
e 56 78
e 56 79
e 56 80
e 56 81
e 56 85
e 56 86
e 56 91
e 56 95
e 56 96
e 56 102
e 56 107
e 57 59
e 57 60
e 57 62
e 57 66
e 57 67
e 57 69
e 57 72
e 57 74
e 57 83
e 57 108
e 57 117
e 58 61
e 58 64
e 58 68
e 58 71
e 59 60
e 59 62
e 59 66
e 59 67
e 59 69
e 59 72
e 59 83
e 59 108
e 60 62
e 60 65
e 60 66
e 60 67
e 60 72
e 60 74
e 60 76
e 60 80
e 60 83
e 60 84
e 60 86
e 60 103
e 60 108
e 60 117
e 61 64
e 61 68
e 61 71
e 62 66
e 62 67
e 62 69
e 62 72
e 62 74
e 62 83
e 62 84
e 62 108
e 62 117
e 63 65
e 63 70
e 63 73
e 63 75
e 63 77
e 63 78
e 63 79
e 63 81
e 63 82
e 63 85
e 63 87
e 63 88
e 63 94
e 63 104
e 63 116
e 64 68
e 64 71
e 65 67
e 65 70
e 65 74
e 65 76
e 65 77
e 65 78
e 65 79
e 65 80
e 65 81
e 65 85
e 65 86
e 65 91
e 65 95
e 65 96
e 65 102
e 65 107
e 66 67
e 66 69
e 66 72
e 66 83
e 66 108
e 67 72
e 67 74
e 67 83
e 67 84
e 67 103
e 67 108
e 67 117
e 68 71
e 69 72
e 69 83
e 70 73
e 70 75
e 70 76
e 70 77
e 70 78
e 70 79
e 70 81
e 70 82
e 70 85
e 70 87
e 70 88
e 70 91
e 70 94
e 70 102
e 70 104
e 70 107
e 72 74
e 72 83
e 72 84
e 72 103
e 72 108
e 72 117
e 73 75
e 73 82
e 73 87
e 73 88
e 73 94
e 73 104
e 73 116
e 74 76
e 74 80
e 74 83
e 74 84
e 74 86
e 74 91
e 74 95
e 74 96
e 74 98
e 74 99
e 74 103
e 74 117
e 74 121
e 75 82
e 75 87
e 75 88
e 75 94
e 75 104
e 75 116
e 76 77
e 76 78
e 76 79
e 76 80
e 76 81
e 76 85
e 76 86
e 76 91
e 76 95
e 76 96
e 76 102
e 76 107
e 77 78
e 77 79
e 77 80
e 77 81
e 77 85
e 77 87
e 77 91
e 77 96
e 77 102
e 77 107
e 78 79
e 78 81
e 78 85
e 78 87
e 78 88
e 78 91
e 78 96
e 78 102
e 78 107
e 79 80
e 79 81
e 79 85
e 79 86
e 79 91
e 79 95
e 79 96
e 79 102
e 79 107
e 80 81
e 80 84
e 80 85
e 80 86
e 80 91
e 80 95
e 80 96
e 80 98
e 80 99
e 80 103
e 80 121
e 80 122
e 81 85
e 81 91
e 81 95
e 81 96
e 81 102
e 81 107
e 82 87
e 82 88
e 82 94
e 82 104
e 82 116
e 83 84
e 83 103
e 83 108
e 83 117
e 84 86
e 84 89
e 84 95
e 84 96
e 84 98
e 84 99
e 84 103
e 84 117
e 84 121
e 85 91
e 85 95
e 85 96
e 85 102
e 85 107
e 86 89
e 86 91
e 86 95
e 86 96
e 86 98
e 86 99
e 86 103
e 86 121
e 86 122
e 87 88
e 87 94
e 87 104
e 87 116
e 88 94
e 88 104
e 88 116
e 89 90
e 89 92
e 89 93
e 89 97
e 89 98
e 89 99
e 89 100
e 89 101
e 89 103
e 89 110
e 89 111
e 89 113
e 89 115
e 89 118
e 89 119
e 89 120
e 89 121
e 89 123
e 89 124
e 90 92
e 90 93
e 90 97
e 90 98
e 90 100
e 90 101
e 90 105
e 90 106
e 90 109
e 90 110
e 90 111
e 90 112
e 90 113
e 90 114
e 90 115
e 90 118
e 90 119
e 90 120
e 90 123
e 90 124
e 91 95
e 91 96
e 91 102
e 91 107
e 91 122
e 92 93
e 92 97
e 92 100
e 92 101
e 92 105
e 92 106
e 92 109
e 92 110
e 92 111
e 92 112
e 92 113
e 92 114
e 92 115
e 92 118
e 92 119
e 92 120
e 92 123
e 92 124
e 93 97
e 93 98
e 93 99
e 93 100
e 93 101
e 93 105
e 93 106
e 93 109
e 93 110
e 93 111
e 93 112
e 93 113
e 93 114
e 93 115
e 93 118
e 93 120
e 93 121
e 94 104
e 94 116
e 95 96
e 95 98
e 95 99
e 95 102
e 95 121
e 95 122
e 96 102
e 96 107
e 96 122
e 97 98
e 97 99
e 97 100
e 97 101
e 97 105
e 97 106
e 97 109
e 97 110
e 97 111
e 97 112
e 97 113
e 97 114
e 97 115
e 97 118
e 98 99
e 98 101
e 98 103
e 98 105
e 98 106
e 98 115
e 98 119
e 98 121
e 99 101
e 99 103
e 99 105
e 99 106
e 99 109
e 99 112
e 99 121
e 99 122
e 100 101
e 100 110
e 100 111
e 100 113
e 100 114
e 100 115
e 100 118
e 100 119
e 100 120
e 100 123
e 100 124
e 101 105
e 101 106
e 101 109
e 101 110
e 101 111
e 101 112
e 101 113
e 101 114
e 102 107
e 103 117
e 103 119
e 103 121
e 104 116
e 105 106
e 105 109
e 105 110
e 105 111
e 105 112
e 105 113
e 105 114
e 105 122
e 106 109
e 106 110
e 106 111
e 106 112
e 106 113
e 106 114
e 106 122
e 108 117
e 109 110
e 109 111
e 109 112
e 109 113
e 109 114
e 109 122
e 110 111
e 110 112
e 110 113
e 110 114
e 111 112
e 111 113
e 111 114
e 112 113
e 112 114
e 112 122
e 113 114
e 115 118
e 115 119
e 115 120
e 115 123
e 115 124
e 118 119
e 118 120
e 118 123
e 118 124
e 119 120
e 119 123
e 119 124
e 120 123
e 120 124
e 123 124
